39-26-14-84-0-52-45-28-48-17-36-60-23-31-25-6-81-77-8-15-50-62-43-65-47-83-10-51-86-95-96-80-44-32-99-73-56-35-9-91-18-98-13-68-2-72-58-88-29-67-1-34-22-20-69-75-90-93-94-42-4-85-49-61-82-71-38-70-55-37-27-87-97-57-33-89-24-16-7-21-74-53-5-46-30-66-54-41-19-63-78-12-64-79-76-40-59-3-92-11 22079